n = 10;
m = 20;
a = [| 8, 10, 14, 19, 11, 13, 5, 19, 4, 10
     | 1, 6, 13, 3, 8, 4, 8, 0, 1, 13
     | 4, 10, 10, 18, 1, 14, 20, 19, 17, 16
     | 18, 7, 13, 8, 11, 14, 20, 10, 20, 2
     | 0, 0, 14, 17, 6, 6, 9, 12, 15, 18
     | 2, 0, 9, 5, 0, 0, 5, 17, 11, 4
     | 3, 7, 10, 5, 2, 14, 0, 9, 0, 0
     | 19, 0, 16, 0, 6, 15, 4, 17, 0, 0
     | 16, 0, 0, 2, 18, 0, 6, 5, 12, 0
     | 9, 0, 0, 0, 13, 0, 17, 0, 0, 5|];
s = [ 19, 29, 12, 25, 36, 32, 11, 13, 24, 42, 10, 9, 22, 28, 12, 23, 25, 15, 22, 23];
